solution status: optimal solution found
objective value:                                    0
v998                                                1 	(obj:0)
v17                                                 1 	(obj:0)
v21                                                 1 	(obj:0)
v32                                                 1 	(obj:0)
v37                                                 1 	(obj:0)
v49                                                 1 	(obj:0)
v61                                                 1 	(obj:0)
v64                                                 1 	(obj:0)
v80                                                 1 	(obj:0)
v88                                                 1 	(obj:0)
v1010                                               1 	(obj:0)
v1035                                               1 	(obj:0)
v1065                                               1 	(obj:0)
v1078                                               1 	(obj:0)
v1088                                               1 	(obj:0)
v1115                                               1 	(obj:0)
v1117                                               1 	(obj:0)
v1156                                               1 	(obj:0)
v1178                                               1 	(obj:0)
v1183                                               1 	(obj:0)
v1194                                               1 	(obj:0)
v2                                                  1 	(obj:0)
v1219                                               1 	(obj:0)
v1257                                               1 	(obj:0)
v1279                                               1 	(obj:0)
v1288                                               1 	(obj:0)
v1301                                               1 	(obj:0)
v1310                                               1 	(obj:0)
v1332                                               1 	(obj:0)
v1344                                               1 	(obj:0)
v1351                                               1 	(obj:0)
v1387                                               1 	(obj:0)
v1396                                               1 	(obj:0)
v1409                                               1 	(obj:0)
v1414                                               1 	(obj:0)
v1429                                               1 	(obj:0)
v1458                                               1 	(obj:0)
v1499                                               1 	(obj:0)
v1518                                               1 	(obj:0)
v1529                                               1 	(obj:0)
v1551                                               1 	(obj:0)
v1560                                               1 	(obj:0)
v1578                                               1 	(obj:0)
v1596                                               1 	(obj:0)
v1597                                               1 	(obj:0)
v102                                                1 	(obj:0)
v105                                                1 	(obj:0)
v114                                                1 	(obj:0)
v119                                                1 	(obj:0)
v131                                                1 	(obj:0)
v144                                                1 	(obj:0)
v148                                                1 	(obj:0)
v153                                                1 	(obj:0)
v164                                                1 	(obj:0)
v168                                                1 	(obj:0)
v170                                                1 	(obj:0)
v171                                                1 	(obj:0)
v175                                                1 	(obj:0)
v177                                                1 	(obj:0)
v178                                                1 	(obj:0)
v180                                                1 	(obj:0)
v181                                                1 	(obj:0)
v183                                                1 	(obj:0)
v185                                                1 	(obj:0)
v187                                                1 	(obj:0)
v190                                                1 	(obj:0)
v194                                                1 	(obj:0)
v195                                                1 	(obj:0)
v197                                                1 	(obj:0)
v200                                                1 	(obj:0)
v202                                                1 	(obj:0)
v205                                                1 	(obj:0)
v207                                                1 	(obj:0)
v209                                                1 	(obj:0)
v210                                                1 	(obj:0)
v211                                                1 	(obj:0)
v215                                                1 	(obj:0)
v217                                                1 	(obj:0)
v221                                                1 	(obj:0)
v222                                                1 	(obj:0)
v223                                                1 	(obj:0)
v227                                                1 	(obj:0)
v231                                                1 	(obj:0)
v232                                                1 	(obj:0)
v234                                                1 	(obj:0)
v237                                                1 	(obj:0)
v238                                                1 	(obj:0)
v239                                                1 	(obj:0)
v242                                                1 	(obj:0)
v244                                                1 	(obj:0)
v246                                                1 	(obj:0)
v248                                                1 	(obj:0)
v250                                                1 	(obj:0)
v253                                                1 	(obj:0)
v254                                                1 	(obj:0)
v256                                                1 	(obj:0)
v258                                                1 	(obj:0)
v264                                                1 	(obj:0)
v266                                                1 	(obj:0)
v269                                                1 	(obj:0)
v270                                                1 	(obj:0)
v271                                                1 	(obj:0)
v272                                                1 	(obj:0)
v274                                                1 	(obj:0)
v276                                                1 	(obj:0)
v283                                                1 	(obj:0)
v286                                                1 	(obj:0)
v287                                                1 	(obj:0)
v288                                                1 	(obj:0)
v289                                                1 	(obj:0)
v291                                                1 	(obj:0)
v293                                                1 	(obj:0)
v296                                                1 	(obj:0)
v298                                                1 	(obj:0)
v299                                                1 	(obj:0)
v301                                                1 	(obj:0)
v303                                                1 	(obj:0)
v309                                                1 	(obj:0)
v313                                                1 	(obj:0)
v314                                                1 	(obj:0)
v315                                                1 	(obj:0)
v317                                                1 	(obj:0)
v318                                                1 	(obj:0)
v320                                                1 	(obj:0)
v324                                                1 	(obj:0)
v325                                                1 	(obj:0)
v362                                                1 	(obj:0)
v371                                                1 	(obj:0)
v385                                                1 	(obj:0)
v390                                                1 	(obj:0)
v420                                                1 	(obj:0)
v431                                                1 	(obj:0)
v464                                                1 	(obj:0)
v484                                                1 	(obj:0)
v493                                                1 	(obj:0)
v521                                                1 	(obj:0)
v535                                                1 	(obj:0)
v546                                                1 	(obj:0)
v563                                                1 	(obj:0)
v584                                                1 	(obj:0)
v598                                                1 	(obj:0)
v626                                                1 	(obj:0)
v640                                                1 	(obj:0)
v652                                                1 	(obj:0)
v661                                                1 	(obj:0)
v670                                                1 	(obj:0)
v697                                                1 	(obj:0)
v723                                                1 	(obj:0)
v735                                                1 	(obj:0)
v763                                                1 	(obj:0)
v773                                                1 	(obj:0)
v785                                                1 	(obj:0)
v818                                                1 	(obj:0)
v848                                                1 	(obj:0)
v871                                                1 	(obj:0)
v892                                                1 	(obj:0)
v894                                                1 	(obj:0)
v908                                                1 	(obj:0)
v913                                                1 	(obj:0)
v936                                                1 	(obj:0)
v943                                                1 	(obj:0)
v981                                                1 	(obj:0)
